c Standarized MaxSat Instance
c{
c "sha1sum": "7a479f545f9f01ec10fd206dc6fcd9f95cc83ce7",
c "nvars": 40,
c "ncls": 1140,
c "nhards": 0,
c "nhard_len_stats":
c    { "min": 0, "max": 0, "ave": 0.00,
c      "stddev": 0.00 },
c "nsofts": 1140,
c "nsoft_len_stats":
c    { "min": 2, "max": 2, "ave": 2.00,
c      "stddev": 0.00 },
c "nsoft_wts": 10,
c "soft_wt_stats":
c    { "min": 1, "max": 10, "ave": 5.65,
c      "stddev": 2.80 }
c}
c------------------------------------------------------------
c File  p_hat1000-3.clq
c
c Source: P. Soriano and M. Gendreau at  patrick@crt.umontreal.ca
c
c Reference: p-hat graphs are generated with the p-hat generator
c 	      which is a generalization of the classical uniform
c 	      random graph generator.
c 	      Graphs generated with p-hat have wider node degree spread
c 	      and larger cliques than uniform graphs.
c
c NOTE: September 23, 1993 Corrected corrupted file at DIMACS.
c
c
c Generation parameters: 
c 	n =   1000 a =  0.50  b =  1.00  Expected density =  0.75
c	Seed =      22013       Real density =  0.744
c
p wcnf 40 1140 6447
9 1 2 0
9 -1 -2 0
4 1 3 0
4 -1 -3 0
8 1 4 0
8 -1 -4 0
8 1 5 0
8 -1 -5 0
10 1 6 0
10 -1 -6 0
2 1 7 0
2 -1 -7 0
4 1 8 0
4 -1 -8 0
8 1 10 0
8 -1 -10 0
3 1 12 0
3 -1 -12 0
6 1 13 0
6 -1 -13 0
5 1 14 0
5 -1 -14 0
7 1 17 0
7 -1 -17 0
4 1 19 0
4 -1 -19 0
6 1 21 0
6 -1 -21 0
10 1 22 0
10 -1 -22 0
10 1 23 0
10 -1 -23 0
7 1 25 0
7 -1 -25 0
8 1 26 0
8 -1 -26 0
2 1 27 0
2 -1 -27 0
7 1 28 0
7 -1 -28 0
1 1 29 0
1 -1 -29 0
3 1 31 0
3 -1 -31 0
2 1 32 0
2 -1 -32 0
9 1 33 0
9 -1 -33 0
2 1 35 0
2 -1 -35 0
5 1 36 0
5 -1 -36 0
2 1 37 0
2 -1 -37 0
2 1 40 0
2 -1 -40 0
10 2 3 0
10 -2 -3 0
3 2 5 0
3 -2 -5 0
6 2 8 0
6 -2 -8 0
9 2 10 0
9 -2 -10 0
7 2 11 0
7 -2 -11 0
3 2 12 0
3 -2 -12 0
7 2 13 0
7 -2 -13 0
6 2 14 0
6 -2 -14 0
5 2 15 0
5 -2 -15 0
10 2 17 0
10 -2 -17 0
3 2 19 0
3 -2 -19 0
8 2 21 0
8 -2 -21 0
6 2 22 0
6 -2 -22 0
8 2 23 0
8 -2 -23 0
5 2 24 0
5 -2 -24 0
9 2 25 0
9 -2 -25 0
3 2 29 0
3 -2 -29 0
4 2 31 0
4 -2 -31 0
9 2 33 0
9 -2 -33 0
10 2 34 0
10 -2 -34 0
1 2 35 0
1 -2 -35 0
10 2 37 0
10 -2 -37 0
6 2 38 0
6 -2 -38 0
1 3 5 0
1 -3 -5 0
2 3 7 0
2 -3 -7 0
7 3 8 0
7 -3 -8 0
9 3 9 0
9 -3 -9 0
4 3 10 0
4 -3 -10 0
1 3 12 0
1 -3 -12 0
1 3 14 0
1 -3 -14 0
5 3 15 0
5 -3 -15 0
1 3 16 0
1 -3 -16 0
3 3 17 0
3 -3 -17 0
10 3 18 0
10 -3 -18 0
10 3 19 0
10 -3 -19 0
9 3 20 0
9 -3 -20 0
3 3 21 0
3 -3 -21 0
6 3 23 0
6 -3 -23 0
4 3 24 0
4 -3 -24 0
8 3 25 0
8 -3 -25 0
6 3 26 0
6 -3 -26 0
7 3 28 0
7 -3 -28 0
6 3 30 0
6 -3 -30 0
1 3 32 0
1 -3 -32 0
5 3 33 0
5 -3 -33 0
10 3 34 0
10 -3 -34 0
10 3 35 0
10 -3 -35 0
8 3 36 0
8 -3 -36 0
3 3 38 0
3 -3 -38 0
8 3 39 0
8 -3 -39 0
7 3 40 0
7 -3 -40 0
4 4 6 0
4 -4 -6 0
7 4 7 0
7 -4 -7 0
2 4 8 0
2 -4 -8 0
5 4 10 0
5 -4 -10 0
9 4 11 0
9 -4 -11 0
9 4 14 0
9 -4 -14 0
4 4 15 0
4 -4 -15 0
3 4 17 0
3 -4 -17 0
9 4 18 0
9 -4 -18 0
4 4 19 0
4 -4 -19 0
7 4 20 0
7 -4 -20 0
10 4 21 0
10 -4 -21 0
6 4 22 0
6 -4 -22 0
7 4 24 0
7 -4 -24 0
9 4 26 0
9 -4 -26 0
5 4 27 0
5 -4 -27 0
10 4 29 0
10 -4 -29 0
4 4 34 0
4 -4 -34 0
9 4 35 0
9 -4 -35 0
7 4 36 0
7 -4 -36 0
10 4 37 0
10 -4 -37 0
5 4 38 0
5 -4 -38 0
3 4 39 0
3 -4 -39 0
10 5 6 0
10 -5 -6 0
10 5 8 0
10 -5 -8 0
2 5 11 0
2 -5 -11 0
9 5 12 0
9 -5 -12 0
7 5 14 0
7 -5 -14 0
5 5 15 0
5 -5 -15 0
7 5 16 0
7 -5 -16 0
3 5 17 0
3 -5 -17 0
8 5 18 0
8 -5 -18 0
4 5 19 0
4 -5 -19 0
5 5 20 0
5 -5 -20 0
3 5 22 0
3 -5 -22 0
2 5 23 0
2 -5 -23 0
3 5 26 0
3 -5 -26 0
6 5 27 0
6 -5 -27 0
5 5 28 0
5 -5 -28 0
2 5 30 0
2 -5 -30 0
10 5 31 0
10 -5 -31 0
2 5 32 0
2 -5 -32 0
2 5 33 0
2 -5 -33 0
5 5 34 0
5 -5 -34 0
8 5 35 0
8 -5 -35 0
10 5 36 0
10 -5 -36 0
10 5 37 0
10 -5 -37 0
7 5 38 0
7 -5 -38 0
4 5 39 0
4 -5 -39 0
8 5 40 0
8 -5 -40 0
4 6 7 0
4 -6 -7 0
3 6 8 0
3 -6 -8 0
3 6 10 0
3 -6 -10 0
6 6 11 0
6 -6 -11 0
3 6 12 0
3 -6 -12 0
2 6 13 0
2 -6 -13 0
8 6 14 0
8 -6 -14 0
2 6 16 0
2 -6 -16 0
8 6 17 0
8 -6 -17 0
2 6 18 0
2 -6 -18 0
8 6 19 0
8 -6 -19 0
1 6 21 0
1 -6 -21 0
10 6 23 0
10 -6 -23 0
1 6 24 0
1 -6 -24 0
6 6 25 0
6 -6 -25 0
2 6 26 0
2 -6 -26 0
3 6 27 0
3 -6 -27 0
8 6 28 0
8 -6 -28 0
8 6 30 0
8 -6 -30 0
7 6 31 0
7 -6 -31 0
10 6 32 0
10 -6 -32 0
7 6 33 0
7 -6 -33 0
8 6 34 0
8 -6 -34 0
1 6 35 0
1 -6 -35 0
2 6 36 0
2 -6 -36 0
6 6 37 0
6 -6 -37 0
1 6 38 0
1 -6 -38 0
1 6 40 0
1 -6 -40 0
3 7 8 0
3 -7 -8 0
5 7 10 0
5 -7 -10 0
9 7 11 0
9 -7 -11 0
6 7 13 0
6 -7 -13 0
8 7 14 0
8 -7 -14 0
1 7 15 0
1 -7 -15 0
2 7 16 0
2 -7 -16 0
10 7 17 0
10 -7 -17 0
3 7 19 0
3 -7 -19 0
9 7 21 0
9 -7 -21 0
2 7 22 0
2 -7 -22 0
10 7 23 0
10 -7 -23 0
1 7 24 0
1 -7 -24 0
9 7 25 0
9 -7 -25 0
1 7 26 0
1 -7 -26 0
1 7 30 0
1 -7 -30 0
10 7 31 0
10 -7 -31 0
6 7 32 0
6 -7 -32 0
2 7 33 0
2 -7 -33 0
2 7 34 0
2 -7 -34 0
4 7 36 0
4 -7 -36 0
10 7 37 0
10 -7 -37 0
9 7 38 0
9 -7 -38 0
4 7 39 0
4 -7 -39 0
6 7 40 0
6 -7 -40 0
6 8 9 0
6 -8 -9 0
5 8 10 0
5 -8 -10 0
7 8 11 0
7 -8 -11 0
1 8 12 0
1 -8 -12 0
6 8 14 0
6 -8 -14 0
8 8 15 0
8 -8 -15 0
4 8 16 0
4 -8 -16 0
10 8 17 0
10 -8 -17 0
6 8 19 0
6 -8 -19 0
9 8 20 0
9 -8 -20 0
8 8 21 0
8 -8 -21 0
7 8 23 0
7 -8 -23 0
1 8 24 0
1 -8 -24 0
8 8 25 0
8 -8 -25 0
9 8 27 0
9 -8 -27 0
10 8 30 0
10 -8 -30 0
9 8 31 0
9 -8 -31 0
9 8 32 0
9 -8 -32 0
10 8 33 0
10 -8 -33 0
8 8 36 0
8 -8 -36 0
10 8 37 0
10 -8 -37 0
10 8 38 0
10 -8 -38 0
7 8 40 0
7 -8 -40 0
5 9 11 0
5 -9 -11 0
2 9 13 0
2 -9 -13 0
9 9 14 0
9 -9 -14 0
9 9 15 0
9 -9 -15 0
1 9 17 0
1 -9 -17 0
7 9 18 0
7 -9 -18 0
3 9 19 0
3 -9 -19 0
7 9 20 0
7 -9 -20 0
3 9 21 0
3 -9 -21 0
8 9 22 0
8 -9 -22 0
4 9 23 0
4 -9 -23 0
4 9 24 0
4 -9 -24 0
3 9 25 0
3 -9 -25 0
1 9 27 0
1 -9 -27 0
7 9 28 0
7 -9 -28 0
3 9 30 0
3 -9 -30 0
7 9 31 0
7 -9 -31 0
6 9 32 0
6 -9 -32 0
10 9 34 0
10 -9 -34 0
3 9 35 0
3 -9 -35 0
6 9 36 0
6 -9 -36 0
8 9 40 0
8 -9 -40 0
2 10 11 0
2 -10 -11 0
5 10 12 0
5 -10 -12 0
6 10 13 0
6 -10 -13 0
10 10 15 0
10 -10 -15 0
5 10 17 0
5 -10 -17 0
4 10 18 0
4 -10 -18 0
9 10 19 0
9 -10 -19 0
5 10 20 0
5 -10 -20 0
1 10 21 0
1 -10 -21 0
4 10 22 0
4 -10 -22 0
6 10 24 0
6 -10 -24 0
9 10 25 0
9 -10 -25 0
3 10 26 0
3 -10 -26 0
7 10 27 0
7 -10 -27 0
5 10 28 0
5 -10 -28 0
5 10 29 0
5 -10 -29 0
4 10 30 0
4 -10 -30 0
8 10 31 0
8 -10 -31 0
2 10 32 0
2 -10 -32 0
7 10 33 0
7 -10 -33 0
1 10 34 0
1 -10 -34 0
5 10 35 0
5 -10 -35 0
7 10 36 0
7 -10 -36 0
7 10 37 0
7 -10 -37 0
7 10 38 0
7 -10 -38 0
4 10 40 0
4 -10 -40 0
2 11 12 0
2 -11 -12 0
7 11 13 0
7 -11 -13 0
7 11 14 0
7 -11 -14 0
8 11 15 0
8 -11 -15 0
4 11 18 0
4 -11 -18 0
8 11 20 0
8 -11 -20 0
3 11 21 0
3 -11 -21 0
10 11 22 0
10 -11 -22 0
7 11 23 0
7 -11 -23 0
7 11 24 0
7 -11 -24 0
3 11 25 0
3 -11 -25 0
6 11 26 0
6 -11 -26 0
1 11 28 0
1 -11 -28 0
3 11 29 0
3 -11 -29 0
9 11 31 0
9 -11 -31 0
7 11 33 0
7 -11 -33 0
1 11 34 0
1 -11 -34 0
2 11 35 0
2 -11 -35 0
4 11 36 0
4 -11 -36 0
6 11 39 0
6 -11 -39 0
6 12 13 0
6 -12 -13 0
7 12 15 0
7 -12 -15 0
3 12 16 0
3 -12 -16 0
8 12 17 0
8 -12 -17 0
3 12 19 0
3 -12 -19 0
4 12 20 0
4 -12 -20 0
2 12 21 0
2 -12 -21 0
10 12 22 0
10 -12 -22 0
1 12 23 0
1 -12 -23 0
9 12 24 0
9 -12 -24 0
4 12 25 0
4 -12 -25 0
2 12 26 0
2 -12 -26 0
5 12 27 0
5 -12 -27 0
10 12 29 0
10 -12 -29 0
10 12 30 0
10 -12 -30 0
8 12 31 0
8 -12 -31 0
7 12 32 0
7 -12 -32 0
2 12 33 0
2 -12 -33 0
7 12 34 0
7 -12 -34 0
4 12 35 0
4 -12 -35 0
8 12 36 0
8 -12 -36 0
10 12 37 0
10 -12 -37 0
10 12 38 0
10 -12 -38 0
9 12 40 0
9 -12 -40 0
3 13 14 0
3 -13 -14 0
8 13 15 0
8 -13 -15 0
6 13 16 0
6 -13 -16 0
3 13 18 0
3 -13 -18 0
10 13 20 0
10 -13 -20 0
10 13 24 0
10 -13 -24 0
9 13 25 0
9 -13 -25 0
5 13 26 0
5 -13 -26 0
6 13 27 0
6 -13 -27 0
2 13 31 0
2 -13 -31 0
3 13 33 0
3 -13 -33 0
9 13 34 0
9 -13 -34 0
5 13 37 0
5 -13 -37 0
5 13 38 0
5 -13 -38 0
9 13 39 0
9 -13 -39 0
5 13 40 0
5 -13 -40 0
3 14 15 0
3 -14 -15 0
2 14 16 0
2 -14 -16 0
7 14 17 0
7 -14 -17 0
8 14 19 0
8 -14 -19 0
2 14 20 0
2 -14 -20 0
7 14 21 0
7 -14 -21 0
5 14 24 0
5 -14 -24 0
9 14 25 0
9 -14 -25 0
8 14 26 0
8 -14 -26 0
2 14 27 0
2 -14 -27 0
3 14 29 0
3 -14 -29 0
5 14 30 0
5 -14 -30 0
2 14 31 0
2 -14 -31 0
2 14 32 0
2 -14 -32 0
4 14 33 0
4 -14 -33 0
4 14 34 0
4 -14 -34 0
10 14 35 0
10 -14 -35 0
10 14 36 0
10 -14 -36 0
7 14 37 0
7 -14 -37 0
9 14 38 0
9 -14 -38 0
9 15 16 0
9 -15 -16 0
5 15 17 0
5 -15 -17 0
4 15 18 0
4 -15 -18 0
4 15 19 0
4 -15 -19 0
7 15 20 0
7 -15 -20 0
7 15 21 0
7 -15 -21 0
3 15 22 0
3 -15 -22 0
2 15 23 0
2 -15 -23 0
1 15 24 0
1 -15 -24 0
2 15 25 0
2 -15 -25 0
7 15 26 0
7 -15 -26 0
4 15 28 0
4 -15 -28 0
3 15 30 0
3 -15 -30 0
4 15 31 0
4 -15 -31 0
1 15 32 0
1 -15 -32 0
5 15 33 0
5 -15 -33 0
10 15 35 0
10 -15 -35 0
6 15 37 0
6 -15 -37 0
3 15 38 0
3 -15 -38 0
7 15 39 0
7 -15 -39 0
8 15 40 0
8 -15 -40 0
5 16 17 0
5 -16 -17 0
2 16 20 0
2 -16 -20 0
9 16 21 0
9 -16 -21 0
7 16 22 0
7 -16 -22 0
6 16 24 0
6 -16 -24 0
3 16 25 0
3 -16 -25 0
6 16 26 0
6 -16 -26 0
5 16 29 0
5 -16 -29 0
9 16 30 0
9 -16 -30 0
4 16 31 0
4 -16 -31 0
3 16 32 0
3 -16 -32 0
4 16 36 0
4 -16 -36 0
8 16 38 0
8 -16 -38 0
7 16 39 0
7 -16 -39 0
10 17 18 0
10 -17 -18 0
4 17 19 0
4 -17 -19 0
9 17 20 0
9 -17 -20 0
2 17 21 0
2 -17 -21 0
5 17 22 0
5 -17 -22 0
1 17 24 0
1 -17 -24 0
8 17 25 0
8 -17 -25 0
8 17 26 0
8 -17 -26 0
3 17 27 0
3 -17 -27 0
2 17 28 0
2 -17 -28 0
9 17 31 0
9 -17 -31 0
8 17 32 0
8 -17 -32 0
1 17 33 0
1 -17 -33 0
5 17 36 0
5 -17 -36 0
10 17 38 0
10 -17 -38 0
8 17 40 0
8 -17 -40 0
3 18 19 0
3 -18 -19 0
5 18 20 0
5 -18 -20 0
9 18 21 0
9 -18 -21 0
1 18 24 0
1 -18 -24 0
1 18 25 0
1 -18 -25 0
4 18 26 0
4 -18 -26 0
4 18 27 0
4 -18 -27 0
7 18 29 0
7 -18 -29 0
9 18 30 0
9 -18 -30 0
2 18 31 0
2 -18 -31 0
1 18 32 0
1 -18 -32 0
1 18 33 0
1 -18 -33 0
5 18 34 0
5 -18 -34 0
8 18 35 0
8 -18 -35 0
7 18 36 0
7 -18 -36 0
5 18 37 0
5 -18 -37 0
2 18 38 0
2 -18 -38 0
6 18 40 0
6 -18 -40 0
6 19 21 0
6 -19 -21 0
6 19 22 0
6 -19 -22 0
6 19 23 0
6 -19 -23 0
4 19 24 0
4 -19 -24 0
4 19 25 0
4 -19 -25 0
9 19 26 0
9 -19 -26 0
5 19 27 0
5 -19 -27 0
2 19 28 0
2 -19 -28 0
7 19 29 0
7 -19 -29 0
6 19 31 0
6 -19 -31 0
7 19 33 0
7 -19 -33 0
6 19 34 0
6 -19 -34 0
3 19 35 0
3 -19 -35 0
9 19 36 0
9 -19 -36 0
1 19 37 0
1 -19 -37 0
1 19 38 0
1 -19 -38 0
10 19 39 0
10 -19 -39 0
2 19 40 0
2 -19 -40 0
5 20 21 0
5 -20 -21 0
3 20 24 0
3 -20 -24 0
9 20 26 0
9 -20 -26 0
3 20 29 0
3 -20 -29 0
4 20 30 0
4 -20 -30 0
9 20 31 0
9 -20 -31 0
4 20 32 0
4 -20 -32 0
9 20 33 0
9 -20 -33 0
7 20 35 0
7 -20 -35 0
1 20 36 0
1 -20 -36 0
3 20 38 0
3 -20 -38 0
8 21 22 0
8 -21 -22 0
7 21 23 0
7 -21 -23 0
9 21 24 0
9 -21 -24 0
4 21 26 0
4 -21 -26 0
3 21 27 0
3 -21 -27 0
2 21 28 0
2 -21 -28 0
7 21 29 0
7 -21 -29 0
2 21 30 0
2 -21 -30 0
7 21 32 0
7 -21 -32 0
8 21 33 0
8 -21 -33 0
8 21 34 0
8 -21 -34 0
3 21 35 0
3 -21 -35 0
5 21 36 0
5 -21 -36 0
4 21 37 0
4 -21 -37 0
5 21 39 0
5 -21 -39 0
3 22 23 0
3 -22 -23 0
4 22 24 0
4 -22 -24 0
6 22 25 0
6 -22 -25 0
2 22 26 0
2 -22 -26 0
6 22 28 0
6 -22 -28 0
1 22 29 0
1 -22 -29 0
4 22 32 0
4 -22 -32 0
4 22 33 0
4 -22 -33 0
4 22 34 0
4 -22 -34 0
8 22 35 0
8 -22 -35 0
3 22 37 0
3 -22 -37 0
7 22 38 0
7 -22 -38 0
6 22 39 0
6 -22 -39 0
10 22 40 0
10 -22 -40 0
7 23 24 0
7 -23 -24 0
9 23 25 0
9 -23 -25 0
7 23 26 0
7 -23 -26 0
4 23 29 0
4 -23 -29 0
7 23 30 0
7 -23 -30 0
1 23 31 0
1 -23 -31 0
6 23 32 0
6 -23 -32 0
9 23 35 0
9 -23 -35 0
7 23 37 0
7 -23 -37 0
7 23 38 0
7 -23 -38 0
6 23 39 0
6 -23 -39 0
5 23 40 0
5 -23 -40 0
4 24 26 0
4 -24 -26 0
8 24 27 0
8 -24 -27 0
9 24 28 0
9 -24 -28 0
7 24 29 0
7 -24 -29 0
2 24 30 0
2 -24 -30 0
1 24 32 0
1 -24 -32 0
1 24 33 0
1 -24 -33 0
7 24 34 0
7 -24 -34 0
2 24 35 0
2 -24 -35 0
7 24 37 0
7 -24 -37 0
8 24 38 0
8 -24 -38 0
6 24 40 0
6 -24 -40 0
1 25 26 0
1 -25 -26 0
1 25 27 0
1 -25 -27 0
4 25 28 0
4 -25 -28 0
3 25 29 0
3 -25 -29 0
7 25 30 0
7 -25 -30 0
9 25 31 0
9 -25 -31 0
2 25 32 0
2 -25 -32 0
4 25 33 0
4 -25 -33 0
7 25 34 0
7 -25 -34 0
9 25 36 0
9 -25 -36 0
7 25 38 0
7 -25 -38 0
4 25 39 0
4 -25 -39 0
9 25 40 0
9 -25 -40 0
2 26 28 0
2 -26 -28 0
2 26 30 0
2 -26 -30 0
6 26 31 0
6 -26 -31 0
9 26 32 0
9 -26 -32 0
7 26 33 0
7 -26 -33 0
10 26 34 0
10 -26 -34 0
2 26 36 0
2 -26 -36 0
4 26 37 0
4 -26 -37 0
8 26 39 0
8 -26 -39 0
9 26 40 0
9 -26 -40 0
6 27 28 0
6 -27 -28 0
8 27 29 0
8 -27 -29 0
10 27 30 0
10 -27 -30 0
3 27 32 0
3 -27 -32 0
10 27 33 0
10 -27 -33 0
6 27 39 0
6 -27 -39 0
10 27 40 0
10 -27 -40 0
5 28 30 0
5 -28 -30 0
6 28 32 0
6 -28 -32 0
10 28 33 0
10 -28 -33 0
8 28 34 0
8 -28 -34 0
9 28 35 0
9 -28 -35 0
6 28 36 0
6 -28 -36 0
7 28 37 0
7 -28 -37 0
10 28 38 0
10 -28 -38 0
10 28 39 0
10 -28 -39 0
4 28 40 0
4 -28 -40 0
9 29 30 0
9 -29 -30 0
6 29 31 0
6 -29 -31 0
7 29 32 0
7 -29 -32 0
8 29 34 0
8 -29 -34 0
8 29 36 0
8 -29 -36 0
8 29 40 0
8 -29 -40 0
3 30 32 0
3 -30 -32 0
7 30 34 0
7 -30 -34 0
5 30 35 0
5 -30 -35 0
2 30 36 0
2 -30 -36 0
8 30 38 0
8 -30 -38 0
9 30 40 0
9 -30 -40 0
9 31 32 0
9 -31 -32 0
7 31 33 0
7 -31 -33 0
5 31 34 0
5 -31 -34 0
7 31 35 0
7 -31 -35 0
6 31 36 0
6 -31 -36 0
7 31 39 0
7 -31 -39 0
6 31 40 0
6 -31 -40 0
2 32 33 0
2 -32 -33 0
6 32 34 0
6 -32 -34 0
1 32 35 0
1 -32 -35 0
8 32 36 0
8 -32 -36 0
6 32 38 0
6 -32 -38 0
9 32 39 0
9 -32 -39 0
6 32 40 0
6 -32 -40 0
2 33 34 0
2 -33 -34 0
5 33 35 0
5 -33 -35 0
6 33 37 0
6 -33 -37 0
1 33 38 0
1 -33 -38 0
9 33 39 0
9 -33 -39 0
4 33 40 0
4 -33 -40 0
7 34 36 0
7 -34 -36 0
5 34 38 0
5 -34 -38 0
2 34 39 0
2 -34 -39 0
5 34 40 0
5 -34 -40 0
3 35 36 0
3 -35 -36 0
5 35 38 0
5 -35 -38 0
1 35 39 0
1 -35 -39 0
8 35 40 0
8 -35 -40 0
6 36 40 0
6 -36 -40 0
9 37 38 0
9 -37 -38 0
6 37 40 0
6 -37 -40 0
5 38 39 0
5 -38 -39 0
5 38 40 0
5 -38 -40 0
10 39 40 0
10 -39 -40 0
